Maximize
0 c0_0 + 4 c0_0 + 3 c0_1 + 8 c0_1 + 4 c0_2 + 4 c0_2 + 2 c0_3 + 1 c0_3 + 5 c0_4 + 2 c0_4 + 1 c0_5 + 7 c0_5 + 8 c0_6 + 4 c0_6 + 6 c0_7 + 1 c0_7 + 7 c0_8 + 4 c0_8 + 5 c1_0 + 7 c1_0 + 6 c1_1 + 7 c1_1 + 4 c1_2 + 10 c1_2 + 7 c1_3 + 10 c1_3 + 1 c1_4 + 7 c1_4 + 3 c1_5 + 5 c1_5 + 8 c1_6 + 7 c1_6 + 2 c1_7 + 4 c1_7 + 0 c1_8 + 10 c1_8 + 4 c2_0 + 8 c2_0 + 1 c2_1 + 1 c2_1 + 0 c2_2 + 2 c2_2 + 6 c2_3 + 9 c2_3 + 3 c2_4 + 4 c2_4 + 2 c2_5 + 10 c2_5 + 7 c2_6 + 2 c2_6 + 8 c2_7 + 10 c2_7 + 5 c2_8 + 5 c2_8 + 0 c3_0 + 9 c3_0 + 8 c3_1 + 0 c3_1 + 2 c3_2 + 6 c3_2 + 7 c3_3 + 4 c3_3 + 6 c3_4 + 0 c3_4 + 5 c3_5 + 9 c3_5 + 1 c3_6 + 3 c3_6 + 4 c3_7 + 3 c3_7 + 3 c3_8 + 1 c3_8 + 5 c4_0 + 0 c4_0 + 1 c4_1 + 2 c4_1 + 8 c4_2 + 0 c4_2 + 2 c4_3 + 3 c4_3 + 3 c4_4 + 6 c4_4 + 7 c4_5 + 4 c4_5 + 6 c4_6 + 0 c4_6 + 0 c4_7 + 7 c4_7 + 4 c4_8 + 8 c4_8 + 7 c5_0 + 3 c5_0 + 6 c5_1 + 6 c5_1 + 1 c5_2 + 1 c5_2 + 5 c5_3 + 6 c5_3 + 4 c5_4 + 3 c5_4 + 2 c5_5 + 6 c5_5 + 0 c5_6 + 5 c5_6 + 8 c5_7 + 0 c5_7 + 3 c5_8 + 9 c5_8 + 0 c6_0 + 1 c6_0 + 4 c6_1 + 3 c6_1 + 7 c6_2 + 9 c6_2 + 8 c6_3 + 8 c6_3 + 6 c6_4 + 9 c6_4 + 3 c6_5 + 8 c6_5 + 2 c6_6 + 9 c6_6 + 5 c6_7 + 9 c6_7 + 1 c6_8 + 6 c6_8 + 0 c7_0 + 2 c7_0 + 7 c7_1 + 10 c7_1 + 1 c7_2 + 7 c7_2 + 8 c7_3 + 5 c7_3 + 4 c7_4 + 5 c7_4 + 3 c7_5 + 3 c7_5 + 2 c7_6 + 8 c7_6 + 6 c7_7 + 6 c7_7 + 5 c7_8 + 3 c7_8 + 4 c8_0 + 10 c8_0 + 1 c8_1 + 4 c8_1 + 2 c8_2 + 5 c8_2 + 3 c8_3 + 0 c8_3 + 7 c8_4 + 1 c8_4 + 5 c8_5 + 0 c8_5 + 0 c8_6 + 1 c8_6 + 6 c8_7 + 8 c8_7 + 8 c8_8 + 7 c8_8 + 5 c9_0 + 6 c9_0 + 6 c9_1 + 9 c9_1 + 2 c9_2 + 8 c9_2 + 7 c9_3 + 7 c9_3 + 0 c9_4 + 10 c9_4 + 4 c9_5 + 2 c9_5 + 1 c9_6 + 6 c9_6 + 3 c9_7 + 5 c9_7 + 8 c9_8 + 0 c9_8 + 8 c10_0 + 5 c10_0 + 4 c10_1 + 5 c10_1 + 2 c10_2 + 3 c10_2 + 5 c10_3 + 2 c10_3 + 3 c10_4 + 8 c10_4 + 6 c10_5 + 1 c10_5 + 0 c10_6 + 10 c10_6 + 1 c10_7 + 2 c10_7 + 7 c10_8 + 2 c10_8
Subject To
c1: c0_0 + c0_1 + c0_2 + c0_3 + c0_4 + c0_5 + c0_6 + c0_7 + c0_8 = 1
c2: c1_0 + c1_1 + c1_2 + c1_3 + c1_4 + c1_5 + c1_6 + c1_7 + c1_8 = 1
c3: c2_0 + c2_1 + c2_2 + c2_3 + c2_4 + c2_5 + c2_6 + c2_7 + c2_8 = 1
c4: c3_0 + c3_1 + c3_2 + c3_3 + c3_4 + c3_5 + c3_6 + c3_7 + c3_8 = 1
c5: c4_0 + c4_1 + c4_2 + c4_3 + c4_4 + c4_5 + c4_6 + c4_7 + c4_8 = 1
c6: c5_0 + c5_1 + c5_2 + c5_3 + c5_4 + c5_5 + c5_6 + c5_7 + c5_8 = 1
c7: c6_0 + c6_1 + c6_2 + c6_3 + c6_4 + c6_5 + c6_6 + c6_7 + c6_8 = 1
c8: c7_0 + c7_1 + c7_2 + c7_3 + c7_4 + c7_5 + c7_6 + c7_7 + c7_8 = 1
c9: c8_0 + c8_1 + c8_2 + c8_3 + c8_4 + c8_5 + c8_6 + c8_7 + c8_8 = 1
c10: c9_0 + c9_1 + c9_2 + c9_3 + c9_4 + c9_5 + c9_6 + c9_7 + c9_8 = 1
c11: c10_0 + c10_1 + c10_2 + c10_3 + c10_4 + c10_5 + c10_6 + c10_7 + c10_8 = 1
c12: c0_0 + c1_0 + c2_0 + c3_0 + c4_0 + c5_0 + c6_0 + c7_0 + c8_0 + c9_0 + c10_0 = 1
c13: c0_1 + c1_1 + c2_1 + c3_1 + c4_1 + c5_1 + c6_1 + c7_1 + c8_1 + c9_1 + c10_1 = 1
c14: c0_2 + c1_2 + c2_2 + c3_2 + c4_2 + c5_2 + c6_2 + c7_2 + c8_2 + c9_2 + c10_2 = 2
c15: c0_3 + c1_3 + c2_3 + c3_3 + c4_3 + c5_3 + c6_3 + c7_3 + c8_3 + c9_3 + c10_3 = 1
c16: c0_4 + c1_4 + c2_4 + c3_4 + c4_4 + c5_4 + c6_4 + c7_4 + c8_4 + c9_4 + c10_4 = 1
c17: c0_5 + c1_5 + c2_5 + c3_5 + c4_5 + c5_5 + c6_5 + c7_5 + c8_5 + c9_5 + c10_5 = 2
c18: c0_6 + c1_6 + c2_6 + c3_6 + c4_6 + c5_6 + c6_6 + c7_6 + c8_6 + c9_6 + c10_6 = 1
c19: c0_7 + c1_7 + c2_7 + c3_7 + c4_7 + c5_7 + c6_7 + c7_7 + c8_7 + c9_7 + c10_7 = 1
c20: c0_8 + c1_8 + c2_8 + c3_8 + c4_8 + c5_8 + c6_8 + c7_8 + c8_8 + c9_8 + c10_8 = 1
Binary
c0_0 c0_1 c0_2 c0_3 c0_4 c0_5 c0_6 c0_7 c0_8 c1_0 c1_1 c1_2 c1_3 c1_4 c1_5 c1_6 c1_7 c1_8 c2_0 c2_1 c2_2 c2_3 c2_4 c2_5 c2_6 c2_7 c2_8 c3_0 c3_1 c3_2 c3_3 c3_4 c3_5 c3_6 c3_7 c3_8 c4_0 c4_1 c4_2 c4_3 c4_4 c4_5 c4_6 c4_7 c4_8 c5_0 c5_1 c5_2 c5_3 c5_4 c5_5 c5_6 c5_7 c5_8 c6_0 c6_1 c6_2 c6_3 c6_4 c6_5 c6_6 c6_7 c6_8 c7_0 c7_1 c7_2 c7_3 c7_4 c7_5 c7_6 c7_7 c7_8 c8_0 c8_1 c8_2 c8_3 c8_4 c8_5 c8_6 c8_7 c8_8 c9_0 c9_1 c9_2 c9_3 c9_4 c9_5 c9_6 c9_7 c9_8 c10_0 c10_1 c10_2 c10_3 c10_4 c10_5 c10_6 c10_7 c10_8
End
